
Gurobi 9.0.0 (linux64, Python) logging started Fri Jan  3 16:40:06 2020

Using license file /home/cai/gurobi.lic
Set parameter LogFile to value gurobi.log
Academic license - for non-commercial use only
